Version identifier: 22.1.1.0 | 2022-11-28 | 9160aff4d
CPXPARAM_ClockType                               1
CPXPARAM_Read_DataCheck                          1
CPXPARAM_Threads                                 1
CPXPARAM_Simplex_Tolerances_Optimality           1.0000000000000001e-09
CPXPARAM_TimeLimit                               7200
CPXPARAM_MIP_Tolerances_AbsMIPGap                0
CPXPARAM_MIP_Tolerances_MIPGap                   0
CPXPARAM_MIP_Tolerances_Integrality              0
Tried aggregator 5 times.
MIQP Presolve eliminated 25452 rows and 3762 columns.
MIQP Presolve modified 18 coefficients.
Aggregator did 2727 substitutions.
Reduced MIQP has 9618 rows, 3751 columns, and 29316 nonzeros.
Reduced MIQP has 3563 binaries, 188 generals, 0 SOSs, and 0 indicators.
Reduced MIQP objective Q matrix has 188 nonzeros.
Presolve time = 0.09 sec. (71.39 ticks)
Probing time = 0.01 sec. (2.86 ticks)
Tried aggregator 1 time.
Reduced MIQP has 9618 rows, 3751 columns, and 29316 nonzeros.
Reduced MIQP has 3563 binaries, 188 generals, 0 SOSs, and 0 indicators.
Reduced MIQP objective Q matrix has 188 nonzeros.
Presolve time = 0.03 sec. (15.42 ticks)
Classifier predicts products in MIQP should be linearized.
Probing time = 0.00 sec. (2.79 ticks)
Clique table members: 6899.
MIP emphasis: balance optimality and feasibility.
MIP search method: dynamic search.
Parallel mode: none, using 1 thread.
Root relaxation solution time = 4.21 sec. (4433.12 ticks)

        Nodes                                         Cuts/
   Node  Left     Objective  IInf  Best Integer    Best Bound    ItCnt     Gap

      0     0     4700.0000  1890                   4700.0000       12         
*     0+    0                         4696.0000     4700.0000             0.09%
      0     0     4700.0000  2193     4696.0000     Cuts: 103   143042    0.09%
      0     0     4700.0000  2390     4696.0000    Cuts: 1491   320791    0.09%
      0     0     4700.0000  2395     4696.0000    Cuts: 2504   397706    0.09%
      0     0     4700.0000  2512     4696.0000    Cuts: 2504   475381    0.09%
      0     0     4700.0000  2523     4696.0000    Cuts: 2504   557045    0.09%
      0     0     4700.0000  2639     4696.0000    Cuts: 2504   621176    0.09%
Heuristic still looking.
Heuristic still looking.
Heuristic still looking.
      0     2     4700.0000  2423     4696.0000     4700.0000   707472    0.09%
Elapsed time = 1132.52 sec. (564945.78 ticks, tree = 0.01 MB, solutions = 1)
      1     3     4700.0000  2557     4696.0000     4700.0000   922181    0.09%
      2     4     4700.0000  2526     4696.0000     4700.0000  1088727    0.09%
      3     5     4700.0000  2357     4696.0000     4700.0000  1143246    0.09%
      4     6     4700.0000  2377     4696.0000     4700.0000  1249157    0.09%
      5     5    infeasible           4696.0000     4700.0000  1261267    0.09%
      6     4    infeasible           4696.0000     4700.0000  1272485    0.09%
      7     3    infeasible           4696.0000     4700.0000  1284168    0.09%
      8     2    infeasible           4696.0000     4700.0000  1289232    0.09%
      9     1    infeasible           4696.0000     4700.0000  1296095    0.09%
     10     0    infeasible           4696.0000     4696.0000  1302575    0.00%
Elapsed time = 1553.40 sec. (768164.33 ticks, tree = 0.01 MB, solutions = 1)

Clique cuts applied:  648
Implied bound cuts applied:  7
Mixed integer rounding cuts applied:  1
Zero-half cuts applied:  482
Gomory fractional cuts applied:  3

Root node processing (before b&c):
  Real time             = 1077.13 sec. (538791.94 ticks)
Sequential b&c:
  Real time             =  476.27 sec. (229372.92 ticks)
                          ------------
Total (root+branch&cut) = 1553.40 sec. (768164.87 ticks)
Solution is feasible.

---------------------
@@@ MIP_optimal
>>> Benchmark mc2024_track1_184.cnf k 10 OPT 4696 TimeCost 1564.89417719841 TimeSolve 1559.0991141796112 TimeRead 0.09215354919433594 TimeTrans 5.702909469604492
